%%%mzn-stat: initTime=0.006419284
%%%mzn-stat: objective=313
%%%mzn-stat: nodes=385
%%%mzn-stat: restarts=0
%%%mzn-stat: peakDepth=72
%%%mzn-stat: solveTime=0.017054674
%%%mzn-stat: variables=282
%%%mzn-stat: propagators=184
%%%mzn-stat: failures=313
%%%mzn-stat: propagations=38207
%%%mzn-stat: nogoods=313
%%%mzn-stat: AverageConflictSize=2
%%%mzn-stat: NumUnitNogoodsLearned=312
%%%mzn-stat: AverageLearnedNogoodLength=1.02555910543131
%%%mzn-stat: AverageBacktrackAmount=0
%%%mzn-stat: AverageLbd=1.0031948881789137
%%%mzn-stat-end
maxleg = 313;
succ = array1d(1..20,[19, 15, 18, 2, 4, 10, 20, 11, 16, 8, 17, 14, 7, 13, 12, 1, 3, 9, 5, 6]);
% time elapsed: 10.09 s
----------
==========
% time elapsed: 10.09 s
%%%mzn-stat: initTime=0.006419284
%%%mzn-stat: objective=313
%%%mzn-stat: nodes=385
%%%mzn-stat: restarts=0
%%%mzn-stat: peakDepth=72
%%%mzn-stat: solveTime=0.017064079
%%%mzn-stat: variables=282
%%%mzn-stat: propagators=184
%%%mzn-stat: failures=313
%%%mzn-stat: propagations=38207
%%%mzn-stat: nogoods=313
%%%mzn-stat: AverageConflictSize=2
%%%mzn-stat: NumUnitNogoodsLearned=312
%%%mzn-stat: AverageLearnedNogoodLength=1.02555910543131
%%%mzn-stat: AverageBacktrackAmount=0
%%%mzn-stat: AverageLbd=1.0031948881789137
%%%mzn-stat-end
